(set-logic BV)

(synth-inv inv_fun ((v3 (_ BitVec 32))(v2 (_ BitVec 32))(v1 (_ BitVec 32))(n (_ BitVec 32))(x (_ BitVec 32))))

(define-fun pre_fun ((v3 (_ BitVec 32)) (v2 (_ BitVec 32)) (v1 (_ BitVec 32)) (n (_ BitVec 32)) (x (_ BitVec 32))) Bool
       ( = x n ))
(define-fun trans_fun ((v3! (_ BitVec 32)) (v2! (_ BitVec 32)) (v1! (_ BitVec 32)) (n! (_ BitVec 32)) (x! (_ BitVec 32)) (v3 (_ BitVec 32)) (v2 (_ BitVec 32)) (v1 (_ BitVec 32)) (n (_ BitVec 32)) (x (_ BitVec 32))) Bool
       ( and ( bvugt x #x00000000 ) ( = x! ( bvsub x #x00000001 ) ) ( = n! n ) ))
(define-fun post_fun ((v3 (_ BitVec 32)) (v2 (_ BitVec 32)) (v1 (_ BitVec 32)) (n (_ BitVec 32)) (x (_ BitVec 32))) Bool
       ( t r u e ))

(inv-constraint inv_fun pre_fun trans_fun post_fun)

(check-synth)

